(set-logic BV) (define-fun origCir ((n231 Bool) (n325 Bool) (n254 Bool) (n207 Bool) (i54 Bool)) Bool (xor (and (xor n325 (not (and n254 n207))) n231) i54)) (synth-fun skel ((n231 Bool) (n325 Bool) (n254 Bool) (n207 Bool) (i54 Bool)) Bool) (declare-var n231 Bool) (declare-var n325 Bool) (declare-var n254 Bool) (declare-var n207 Bool) (declare-var i54 Bool) (constraint (= (origCir n231 n325 n254 n207 i54) (skel n231 n325 n254 n207 i54))) (check-synth)
